
===== New CPLEX run =====
Instance: /home/yorig/tuner/mpils-tests/instances/miplib/easy/lotsize.mps
Config: /scratch/yorig/mpils-results-grid-ticks-10000/easy/16proc/seed-9/4_lotsize_seed-9_20260425_202405/iterated_local_search/run_2_worker_14/ils_config_1072331885586006951.prm
========================

Selected objective sense:  MINIMIZE
Selected objective  name:  R1921
Selected RHS        name:  B
Selected bound      name:  BOUND
Version identifier: 22.1.2.0 | 2024-11-26 | 0edbb82fd
CPXPARAM_Threads                                 8
CPXPARAM_Parallel                                1
CPXPARAM_MIP_Cuts_Cliques                        3
CPXPARAM_MIP_Strategy_VariableSelect             3
CPXPARAM_MIP_Cuts_Implied                        1
CPXPARAM_MIP_Cuts_GUBCovers                      2
CPXPARAM_MIP_Limits_GomoryCand                   400
CPXPARAM_MIP_Cuts_PathCut                        -1
CPXPARAM_MIP_Cuts_Disjunctive                    3
CPXPARAM_Emphasis_MIP                            2
CPXPARAM_DetTimeLimit                            10000
Tried aggregator 1 time.
MIP Presolve eliminated 595 rows and 0 columns.
MIP Presolve added 1190 rows and 0 columns.
MIP Presolve modified 10 coefficients.
Reduced MIP has 2515 rows, 2985 columns, and 7755 nonzeros.
Reduced MIP has 1195 binaries, 0 generals, 0 SOSs, and 0 indicators.
Presolve time = 0.00 sec. (4.53 ticks)
Probing fixed 0 vars, tightened 5487 bounds.
Probing time = 0.01 sec. (18.38 ticks)
Tried aggregator 2 times.
Detecting symmetries...
MIP Presolve modified 1206 coefficients.
Aggregator did 10 substitutions.
Reduced MIP has 2505 rows, 2975 columns, and 7735 nonzeros.
Reduced MIP has 1195 binaries, 0 generals, 0 SOSs, and 0 indicators.
Presolve time = 0.00 sec. (6.66 ticks)
Probing fixed 0 vars, tightened 2401 bounds.
Probing time = 0.00 sec. (6.41 ticks)
Clique table members: 190.
MIP emphasis: optimality.
MIP search method: dynamic search.
Parallel mode: deterministic, using up to 8 threads.
Root relaxation solution time = 0.01 sec. (9.71 ticks)

        Nodes                                         Cuts/
   Node  Left     Objective  IInf  Best Integer    Best Bound    ItCnt     Gap

      0     0   348385.3466   472                 348385.3466      882         
*     0+    0                       1.01740e+07   348385.3466            96.58%
*     0+    0                      7973370.0000   348385.3466            95.63%
      0     0   471257.8496   612  7973370.0000     Cuts: 726     1829   94.09%
*     0+    0                      1973822.0000   471257.8496            76.12%
      0     0   683285.6305   590  1973822.0000     Cuts: 726     2753   65.38%
      0     0   861083.0917   608  1973822.0000     Cuts: 726     3531   56.37%

GUB cover cuts applied:  0
Clique cuts applied:  0
Cover cuts applied:  9
Implied bound cuts applied:  17
Flow cuts applied:  500
Mixed integer rounding cuts applied:  381
Multi commodity flow cuts applied:  9
Gomory fractional cuts applied:  110
Disjunctive cuts applied:  55
Cone linearizations applied:  0

Root node processing (before b&c):
  Real time             =    6.57 sec. (10056.46 ticks)
Parallel b&c, 8 threads:
  Real time             =    0.00 sec. (0.00 ticks)
  Sync time (average)   =    0.00 sec.
  Wait time (average)   =    0.00 sec.
                          ------------
Total (root+branch&cut) =    6.57 sec. (10056.46 ticks)
Gap: 56.37%
Upper bound: 1.97382e+06
Lower bound: 861083
End of CPLEX run. Time: 6.57953 seconds

===== New CPLEX run =====
Instance: /home/yorig/tuner/mpils-tests/instances/miplib/easy/lotsize.mps
Config: /scratch/yorig/mpils-results-grid-ticks-10000/easy/16proc/seed-9/4_lotsize_seed-9_20260425_202405/iterated_local_search/run_2_worker_14/ils_config_12703086190104413062.prm
========================

Selected objective sense:  MINIMIZE
Selected objective  name:  R1921
Selected RHS        name:  B
Selected bound      name:  BOUND
Version identifier: 22.1.2.0 | 2024-11-26 | 0edbb82fd
CPXPARAM_Threads                                 8
CPXPARAM_Parallel                                1
CPXPARAM_MIP_Cuts_Cliques                        -1
CPXPARAM_MIP_Strategy_VariableSelect             3
CPXPARAM_MIP_Cuts_Implied                        1
CPXPARAM_MIP_Cuts_GUBCovers                      2
CPXPARAM_MIP_Limits_GomoryCand                   400
CPXPARAM_MIP_Cuts_PathCut                        -1
CPXPARAM_MIP_Cuts_Disjunctive                    3
CPXPARAM_Emphasis_MIP                            2
CPXPARAM_DetTimeLimit                            10000
Tried aggregator 1 time.
MIP Presolve eliminated 595 rows and 0 columns.
MIP Presolve added 1190 rows and 0 columns.
MIP Presolve modified 10 coefficients.
Reduced MIP has 2515 rows, 2985 columns, and 7755 nonzeros.
Reduced MIP has 1195 binaries, 0 generals, 0 SOSs, and 0 indicators.
Presolve time = 0.00 sec. (4.53 ticks)
Probing fixed 0 vars, tightened 5487 bounds.
Probing time = 0.01 sec. (18.38 ticks)
Tried aggregator 2 times.
Detecting symmetries...
MIP Presolve modified 1206 coefficients.
Aggregator did 10 substitutions.
Reduced MIP has 2505 rows, 2975 columns, and 7735 nonzeros.
Reduced MIP has 1195 binaries, 0 generals, 0 SOSs, and 0 indicators.
Presolve time = 0.00 sec. (6.66 ticks)
Probing fixed 0 vars, tightened 2401 bounds.
Probing time = 0.00 sec. (6.41 ticks)
Clique table members: 190.
MIP emphasis: optimality.
MIP search method: dynamic search.
Parallel mode: deterministic, using up to 8 threads.
Root relaxation solution time = 0.01 sec. (9.71 ticks)

        Nodes                                         Cuts/
   Node  Left     Objective  IInf  Best Integer    Best Bound    ItCnt     Gap

      0     0   348385.3466   472                 348385.3466      882         
*     0+    0                       1.01740e+07   348385.3466            96.58%
*     0+    0                      7973370.0000   348385.3466            95.63%
      0     0   471257.8496   612  7973370.0000     Cuts: 726     1829   94.09%
*     0+    0                      1973822.0000   471257.8496            76.12%
      0     0   683285.6305   590  1973822.0000     Cuts: 726     2753   65.38%
      0     0   861083.0917   608  1973822.0000     Cuts: 726     3531   56.37%

GUB cover cuts applied:  0
Cover cuts applied:  9
Implied bound cuts applied:  17
Flow cuts applied:  500
Mixed integer rounding cuts applied:  381
Multi commodity flow cuts applied:  9
Gomory fractional cuts applied:  110
Disjunctive cuts applied:  55
Cone linearizations applied:  0

Root node processing (before b&c):
  Real time             =    6.59 sec. (10056.55 ticks)
Parallel b&c, 8 threads:
  Real time             =    0.00 sec. (0.00 ticks)
  Sync time (average)   =    0.00 sec.
  Wait time (average)   =    0.00 sec.
                          ------------
Total (root+branch&cut) =    6.59 sec. (10056.55 ticks)
Gap: 56.37%
Upper bound: 1.97382e+06
Lower bound: 861083
End of CPLEX run. Time: 6.58934 seconds

===== New CPLEX run =====
Instance: /home/yorig/tuner/mpils-tests/instances/miplib/easy/lotsize.mps
Config: /scratch/yorig/mpils-results-grid-ticks-10000/easy/16proc/seed-9/4_lotsize_seed-9_20260425_202405/iterated_local_search/run_2_worker_14/ils_config_14819601575600205756.prm
========================

Selected objective sense:  MINIMIZE
Selected objective  name:  R1921
Selected RHS        name:  B
Selected bound      name:  BOUND
Version identifier: 22.1.2.0 | 2024-11-26 | 0edbb82fd
CPXPARAM_Threads                                 8
CPXPARAM_Parallel                                1
CPXPARAM_MIP_Cuts_Cliques                        3
CPXPARAM_MIP_Strategy_VariableSelect             3
CPXPARAM_MIP_Cuts_Implied                        1
CPXPARAM_MIP_Cuts_GUBCovers                      2
CPXPARAM_MIP_Limits_GomoryCand                   100
CPXPARAM_MIP_Cuts_PathCut                        -1
CPXPARAM_MIP_Cuts_Disjunctive                    3
CPXPARAM_Emphasis_MIP                            2
CPXPARAM_DetTimeLimit                            10000
Tried aggregator 1 time.
MIP Presolve eliminated 595 rows and 0 columns.
MIP Presolve added 1190 rows and 0 columns.
MIP Presolve modified 10 coefficients.
Reduced MIP has 2515 rows, 2985 columns, and 7755 nonzeros.
Reduced MIP has 1195 binaries, 0 generals, 0 SOSs, and 0 indicators.
Presolve time = 0.00 sec. (4.53 ticks)
Probing fixed 0 vars, tightened 5487 bounds.
Probing time = 0.01 sec. (18.38 ticks)
Tried aggregator 2 times.
Detecting symmetries...
MIP Presolve modified 1206 coefficients.
Aggregator did 10 substitutions.
Reduced MIP has 2505 rows, 2975 columns, and 7735 nonzeros.
Reduced MIP has 1195 binaries, 0 generals, 0 SOSs, and 0 indicators.
Presolve time = 0.00 sec. (6.66 ticks)
Probing fixed 0 vars, tightened 2401 bounds.
Probing time = 0.00 sec. (6.41 ticks)
Clique table members: 190.
MIP emphasis: optimality.
MIP search method: dynamic search.
Parallel mode: deterministic, using up to 8 threads.
Root relaxation solution time = 0.01 sec. (9.71 ticks)

        Nodes                                         Cuts/
   Node  Left     Objective  IInf  Best Integer    Best Bound    ItCnt     Gap

      0     0   348385.3466   472                 348385.3466      882         
*     0+    0                       1.01740e+07   348385.3466            96.58%
*     0+    0                      7973370.0000   348385.3466            95.63%
      0     0   511850.7071   511  7973370.0000     Cuts: 726     1821   93.58%
*     0+    0                      1973822.0000   511850.7071            74.07%
      0     0   767704.8464   573  1973822.0000     Cuts: 726     2661   61.11%
      0     0   915164.3619   625  1973822.0000     Cuts: 726     3395   53.63%
Advanced basis not built.

GUB cover cuts applied:  0
Clique cuts applied:  0
Cover cuts applied:  10
Implied bound cuts applied:  14
Flow cuts applied:  528
Mixed integer rounding cuts applied:  406
Multi commodity flow cuts applied:  20
Gomory fractional cuts applied:  43
Disjunctive cuts applied:  49
Cone linearizations applied:  0

Root node processing (before b&c):
  Real time             =    6.56 sec. (10044.85 ticks)
Parallel b&c, 8 threads:
  Real time             =    0.00 sec. (0.00 ticks)
  Sync time (average)   =    0.00 sec.
  Wait time (average)   =    0.00 sec.
                          ------------
Total (root+branch&cut) =    6.56 sec. (10044.85 ticks)
Gap: 53.63%
Upper bound: 1.97382e+06
Lower bound: 915164
End of CPLEX run. Time: 6.5674 seconds

===== New CPLEX run =====
Instance: /home/yorig/tuner/mpils-tests/instances/miplib/easy/lotsize.mps
Config: /scratch/yorig/mpils-results-grid-ticks-10000/easy/16proc/seed-9/4_lotsize_seed-9_20260425_202405/iterated_local_search/run_2_worker_14/ils_config_3781896158729253770.prm
========================

Selected objective sense:  MINIMIZE
Selected objective  name:  R1921
Selected RHS        name:  B
Selected bound      name:  BOUND
Version identifier: 22.1.2.0 | 2024-11-26 | 0edbb82fd
CPXPARAM_Threads                                 8
CPXPARAM_Parallel                                1
CPXPARAM_MIP_Cuts_Cliques                        3
CPXPARAM_MIP_Strategy_VariableSelect             3
CPXPARAM_MIP_Cuts_Implied                        1
CPXPARAM_MIP_Cuts_GUBCovers                      2
CPXPARAM_MIP_Limits_GomoryCand                   100
CPXPARAM_MIP_Cuts_PathCut                        -1
CPXPARAM_MIP_Cuts_Disjunctive                    3
CPXPARAM_Emphasis_MIP                            3
CPXPARAM_DetTimeLimit                            10000
Tried aggregator 1 time.
MIP Presolve eliminated 595 rows and 0 columns.
MIP Presolve added 1190 rows and 0 columns.
MIP Presolve modified 10 coefficients.
Reduced MIP has 2515 rows, 2985 columns, and 7755 nonzeros.
Reduced MIP has 1195 binaries, 0 generals, 0 SOSs, and 0 indicators.
Presolve time = 0.00 sec. (4.53 ticks)
Probing fixed 0 vars, tightened 5487 bounds.
Probing time = 0.01 sec. (18.38 ticks)
Tried aggregator 2 times.
Detecting symmetries...
MIP Presolve modified 1206 coefficients.
Aggregator did 10 substitutions.
Reduced MIP has 2505 rows, 2975 columns, and 7735 nonzeros.
Reduced MIP has 1195 binaries, 0 generals, 0 SOSs, and 0 indicators.
Presolve time = 0.00 sec. (6.66 ticks)
Probing fixed 0 vars, tightened 2401 bounds.
Probing time = 0.00 sec. (6.41 ticks)
Clique table members: 160.
MIP emphasis: best bound.
MIP search method: dynamic search.
Parallel mode: deterministic, using up to 8 threads.
Root relaxation solution time = 0.01 sec. (9.68 ticks)

        Nodes                                         Cuts/
   Node  Left     Objective  IInf  Best Integer    Best Bound    ItCnt     Gap

      0     0   348385.3466   472                 348385.3466      882         
*     0+    0                       1.01740e+07   348385.3466            96.58%
*     0+    0                      7973370.0000   348385.3466            95.63%
      0     0   513904.3331   495  7973370.0000     Cuts: 726     1793   93.55%
*     0+    0                      1809723.0000   513904.3331            71.60%
      0     0   772852.9955   580  1809723.0000     Cuts: 726     2646   57.29%
*     0+    0                      1779673.0000   772852.9955            56.57%
      0     0   923235.5693   632  1779673.0000     Cuts: 726     3381   48.12%

GUB cover cuts applied:  0
Clique cuts applied:  0
Cover cuts applied:  10
Implied bound cuts applied:  12
Flow cuts applied:  502
Mixed integer rounding cuts applied:  431
Multi commodity flow cuts applied:  22
Gomory fractional cuts applied:  38
Disjunctive cuts applied:  45
Cone linearizations applied:  0

Root node processing (before b&c):
  Real time             =    6.51 sec. (10018.15 ticks)
Parallel b&c, 8 threads:
  Real time             =    0.00 sec. (0.00 ticks)
  Sync time (average)   =    0.00 sec.
  Wait time (average)   =    0.00 sec.
                          ------------
Total (root+branch&cut) =    6.51 sec. (10018.15 ticks)
Gap: 43.34%
Upper bound: 1.77967e+06
Lower bound: 1.00829e+06
End of CPLEX run. Time: 6.51845 seconds

===== New CPLEX run =====
Instance: /home/yorig/tuner/mpils-tests/instances/miplib/easy/lotsize.mps
Config: /scratch/yorig/mpils-results-grid-ticks-10000/easy/16proc/seed-9/4_lotsize_seed-9_20260425_202405/iterated_local_search/run_2_worker_14/ils_config_3754476078072992352.prm
========================

Selected objective sense:  MINIMIZE
Selected objective  name:  R1921
Selected RHS        name:  B
Selected bound      name:  BOUND
Version identifier: 22.1.2.0 | 2024-11-26 | 0edbb82fd
CPXPARAM_Threads                                 8
CPXPARAM_Parallel                                1
CPXPARAM_MIP_Cuts_Cliques                        3
CPXPARAM_MIP_Strategy_VariableSelect             3
CPXPARAM_MIP_Cuts_Implied                        2
CPXPARAM_MIP_Cuts_GUBCovers                      2
CPXPARAM_MIP_Limits_GomoryCand                   100
CPXPARAM_MIP_Cuts_PathCut                        -1
CPXPARAM_MIP_Cuts_Disjunctive                    3
CPXPARAM_Emphasis_MIP                            3
CPXPARAM_DetTimeLimit                            10000
Tried aggregator 1 time.
MIP Presolve eliminated 595 rows and 0 columns.
MIP Presolve added 1190 rows and 0 columns.
MIP Presolve modified 10 coefficients.
Reduced MIP has 2515 rows, 2985 columns, and 7755 nonzeros.
Reduced MIP has 1195 binaries, 0 generals, 0 SOSs, and 0 indicators.
Presolve time = 0.00 sec. (4.53 ticks)
Probing fixed 0 vars, tightened 5487 bounds.
Probing time = 0.01 sec. (18.38 ticks)
Tried aggregator 2 times.
Detecting symmetries...
MIP Presolve modified 1206 coefficients.
Aggregator did 10 substitutions.
Reduced MIP has 2505 rows, 2975 columns, and 7735 nonzeros.
Reduced MIP has 1195 binaries, 0 generals, 0 SOSs, and 0 indicators.
Presolve time = 0.00 sec. (6.66 ticks)
Probing fixed 0 vars, tightened 2401 bounds.
Probing time = 0.00 sec. (6.41 ticks)
Clique table members: 160.
MIP emphasis: best bound.
MIP search method: dynamic search.
Parallel mode: deterministic, using up to 8 threads.
Root relaxation solution time = 0.01 sec. (9.68 ticks)

        Nodes                                         Cuts/
   Node  Left     Objective  IInf  Best Integer    Best Bound    ItCnt     Gap

      0     0   348385.3466   472                 348385.3466      882         
*     0+    0                       1.01740e+07   348385.3466            96.58%
*     0+    0                      7973370.0000   348385.3466            95.63%
      0     0   513904.3331   495  7973370.0000     Cuts: 726     1793   93.55%
*     0+    0                      1809723.0000   513904.3331            71.60%
      0     0   772852.9955   580  1809723.0000     Cuts: 726     2646   57.29%
*     0+    0                      1779673.0000   772852.9955            56.57%
      0     0   923235.5693   632  1779673.0000     Cuts: 726     3381   48.12%

GUB cover cuts applied:  0
Clique cuts applied:  0
Cover cuts applied:  10
Implied bound cuts applied:  12
Flow cuts applied:  502
Mixed integer rounding cuts applied:  431
Multi commodity flow cuts applied:  22
Gomory fractional cuts applied:  38
Disjunctive cuts applied:  45
Cone linearizations applied:  0

Root node processing (before b&c):
  Real time             =    6.51 sec. (10018.15 ticks)
Parallel b&c, 8 threads:
  Real time             =    0.00 sec. (0.00 ticks)
  Sync time (average)   =    0.00 sec.
  Wait time (average)   =    0.00 sec.
                          ------------
Total (root+branch&cut) =    6.51 sec. (10018.15 ticks)
Gap: 43.34%
Upper bound: 1.77967e+06
Lower bound: 1.00829e+06
End of CPLEX run. Time: 6.5092 seconds
